gen	cost
1	20693
2	20610
3	20504
4	20345
5	20206
6	20046
7	20027
8	19893
9	19858
10	19706
11	19603
12	19549
13	19393
14	19221
15	19196
16	19167
17	19151
18	19064
19	19021
20	18981
21	18941
22	18860
23	18729
24	18722
25	18708
26	18606
27	18558
28	18541
29	18473
30	18461
31	18403
32	18351
33	18304
34	18240
35	18191
36	18077
37	18037
38	17991
39	17939
40	17916
41	17903
42	17862
43	17837
44	17770
45	17707
46	17703
47	17630
48	17605
49	17574
50	17537

